(set-info :smt-lib-version 2.6)
(set-logic UFLIA)
(set-info :source |
Generated by: Geoff Sutcliffe
Generated on: 2026-03-11
Generator: TPTPWorld
Application: Benchmarking automated theorem provers
Time limit: 120.0

These benchmarks are translations from the TPTP Library (Thousands of
Problems for Theorem Provers), see http://www.cs.miami.edu/~tptp/

The TPTP is maintained by Geoff Sutcliffe, and he contributed this
selection of benchmarks to SMT-LIB.  They were exported from the
v9.2.1 realease of TPTP.
|)
(set-info :category "industrial")
(set-info :status "unknown")
; SZS status Success
(declare-sort $$unsorted 0)
(declare-sort tptp.list 0)
(declare-fun tptp.a () tptp.list)
(declare-fun tptp.l () Int)
(declare-fun tptp.k () Int)
(declare-fun tptp.min (tptp.list) Int)
(declare-fun tptp.max (tptp.list) Int)
(assert (not (=> (and (forall ((X tptp.list)) (<= (tptp.min X) (tptp.max X))) (<= tptp.l (tptp.min tptp.a)) (< 0 tptp.k)) (< tptp.l (+ (tptp.max tptp.a) tptp.k)))))
(check-sat)
(exit)
